sat
(:max-memory         18.12
 :memory             17.98
 :nlsat-propagations 11
 :nlsat-stages       5
 :num-allocs         6312
 :rlimit-count       3181
 :time               0.00
 :total-time         0.01)
